84 132 147 129 91 116 19 83 
6 78 3 68 18 161 38 194 121 115 
163 131 150 199 71 191 87 193 185 
4 12 29 119 40 23 52 106 70 13 76 
142 35 164 122 77 134 174 141 36 
118 113 9 21 53 81 154 135 2 67 
15 103 162 42 145 80 178 1 30 175 
165 48 110 156 179 158 50 33 157 
169 57 98 136 184 27 17 82 97 
28 140 143 54 72 95 90 66 39 120 
14 47 24 102 183 196 133 117 114 101 192 
37 188 59 45 177 99 94 166 126 34 96 75 
92 89 100 187 171 149 138 186 137 123 8 
43 180 152 167 111 51 190 55 107 60 
127 176 155 151 125 128 86 41 73 93 64 
49 200 63 5 197 172 20 26 79 11 148 
153 182 195 85 56 189 108 74 160 
124 7 31 112 109 146 
62 46 130 173 144 
61 32 65 
181 159 10 25 58 
88 139 105 69 
104 170 44 
168 198 22 
16 

